Version identifier: 20.1.0.0 | 2020-11-10 | 9bedb6d68
Tried aggregator 2 times.
MIP Presolve eliminated 269 rows and 232 columns.
Aggregator did 12 substitutions.
Reduced MIP has 26 rows, 30 columns, and 64 nonzeros.
Reduced MIP has 18 binaries, 0 generals, 0 SOSs, and 0 indicators.
Presolve time = 0.00 sec. (0.33 ticks)
Found incumbent of value 3.001197 after 0.00 sec. (0.39 ticks)
Probing fixed 0 vars, tightened 6 bounds.
Probing changed sense of 6 constraints.
Probing time = 0.00 sec. (0.03 ticks)
Cover probing fixed 0 vars, tightened 1 bounds.
Tried aggregator 1 time.
MIP Presolve eliminated 24 rows and 25 columns.
MIP Presolve added 1 rows and 1 columns.
MIP Presolve modified 9 coefficients.
Reduced MIP has 3 rows, 6 columns, and 10 nonzeros.
Reduced MIP has 5 binaries, 1 generals, 0 SOSs, and 0 indicators.
Presolve time = 0.00 sec. (0.03 ticks)
Probing fixed 0 vars, tightened 1 bounds.
Probing time = 0.00 sec. (0.00 ticks)
Tried aggregator 1 time.
MIP Presolve eliminated 1 rows and 2 columns.
MIP Presolve modified 1 coefficients.
Reduced MIP has 2 rows, 4 columns, and 5 nonzeros.
Reduced MIP has 4 binaries, 0 generals, 0 SOSs, and 0 indicators.
Presolve time = 0.00 sec. (0.01 ticks)
Probing time = 0.00 sec. (0.00 ticks)
Tried aggregator 2 times.
MIP Presolve eliminated 0 rows and 2 columns.
MIP Presolve modified 3 coefficients.
Aggregator did 2 substitutions.
All rows and columns eliminated.
Presolve time = 0.00 sec. (0.00 ticks)

Root node processing (before b&c):
  Real time             =    0.01 sec. (0.52 ticks)
Parallel b&c, 10 threads:
  Real time             =    0.00 sec. (0.00 ticks)
  Sync time (average)   =    0.00 sec.
  Wait time (average)   =    0.00 sec.
                          ------------
Total (root+branch&cut) =    0.01 sec. (0.52 ticks)
